46
13
0 13 14 17 18 20 21 22 23 26 27 29 30 31 32 34 35 38 40 44
1 13 16 17 20 21 23 26 27 29 32 34 35 37 38 40 41 44 45
2 14 15 18 20 21 22 23 26 27 31 32 33 35 37 38 41 44 45
3 14 18 20 22 23 25 27 28 31 32 33 34 35 37 40 41 42 43 44
4 14 15 17 19 21 27 28 29 34 43
5 13 14 15 17 19 20 22 24 25 26 33 35 40 41 43
6 14 15 17 20 21 22 23 26 27 30 31 32 33 35 40 41 45
7 15 18 20 21 22 25 26 28 29 31 32 34 36 38 42 45
8 14 19 20 23 29 32 33 42 44 45
9 13 16 17 18 21 23 25 28 30 33 34 35 37 41
10 14 26 27 37 38 39 41
11 13 20 26 27 34 40 44
12 34
